p cnf 106 282
-2 12 37 0
2 -12 37 0
2 12 -37 0
-2 -12 -37 0
-1 5 38 0
1 -5 38 0
1 5 -38 0
-1 -5 -38 0
-7 26 39 0
7 -26 39 0
7 26 -39 0
-7 -26 -39 0
-20 28 40 0
20 -28 40 0
20 28 -40 0
-20 -28 -40 0
-23 30 41 0
23 -30 41 0
23 30 -41 0
-23 -30 -41 0
-35 38 42 0
35 -38 42 0
35 38 -42 0
-35 -38 -42 0
-41 17 43 0
41 -17 43 0
41 17 -43 0
-41 -17 -43 0
-33 27 44 0
33 -27 44 0
33 27 -44 0
-33 -27 -44 0
-11 24 45 0
11 -24 45 0
11 24 -45 0
-11 -24 -45 0
-36 19 46 0
36 -19 46 0
36 19 -46 0
-36 -19 -46 0
-40 13 47 0
40 -13 47 0
40 13 -47 0
-40 -13 -47 0
-15 8 48 0
15 -8 48 0
15 8 -48 0
-15 -8 -48 0
-45 31 49 0
45 -31 49 0
45 31 -49 0
-45 -31 -49 0
-32 16 50 0
32 -16 50 0
32 16 -50 0
-32 -16 -50 0
-25 14 51 0
25 -14 51 0
25 14 -51 0
-25 -14 -51 0
-22 51 52 0
22 -51 52 0
22 51 -52 0
-22 -51 -52 0
-39 46 53 0
39 -46 53 0
39 46 -53 0
-39 -46 -53 0
-42 18 54 0
42 -18 54 0
42 18 -54 0
-42 -18 -54 0
-44 53 55 0
44 -53 55 0
44 53 -55 0
-44 -53 -55 0
-4 50 56 0
4 -50 56 0
4 50 -56 0
-4 -50 -56 0
-54 43 57 0
54 -43 57 0
54 43 -57 0
-54 -43 -57 0
-29 49 58 0
29 -49 58 0
29 49 -58 0
-29 -49 -58 0
-56 58 59 0
56 -58 59 0
56 58 -59 0
-56 -58 -59 0
-52 10 60 0
52 -10 60 0
52 10 -60 0
-52 -10 -60 0
-48 21 61 0
48 -21 61 0
48 21 -61 0
-48 -21 -61 0
-59 47 62 0
59 -47 62 0
59 47 -62 0
-59 -47 -62 0
-62 6 63 0
62 -6 63 0
62 6 -63 0
-62 -6 -63 0
-55 3 64 0
55 -3 64 0
55 3 -64 0
-55 -3 -64 0
-57 61 65 0
57 -61 65 0
57 61 -65 0
-57 -61 -65 0
-65 64 66 0
65 -64 66 0
65 64 -66 0
-65 -64 -66 0
-37 66 67 0
37 -66 67 0
37 66 -67 0
-37 -66 -67 0
-60 67 68 0
60 -67 68 0
60 67 -68 0
-60 -67 -68 0
-9 34 69 0
9 -34 69 0
9 34 -69 0
-9 -34 -69 0
-69 68 70 0
69 -68 70 0
69 68 -70 0
-69 -68 -70 0
-70 63 71 0
70 -63 71 0
70 63 -71 0
-70 -63 -71 0
-11 36 72 0
11 -36 72 0
11 36 -72 0
-11 -36 -72 0
-21 16 73 0
21 -16 73 0
21 16 -73 0
-21 -16 -73 0
-3 31 74 0
3 -31 74 0
3 31 -74 0
-3 -31 -74 0
-2 26 75 0
2 -26 75 0
2 26 -75 0
-2 -26 -75 0
-27 4 76 0
27 -4 76 0
27 4 -76 0
-27 -4 -76 0
-29 15 77 0
29 -15 77 0
29 15 -77 0
-29 -15 -77 0
-10 34 78 0
10 -34 78 0
10 34 -78 0
-10 -34 -78 0
-5 17 79 0
5 -17 79 0
5 17 -79 0
-5 -17 -79 0
-75 79 80 0
75 -79 80 0
75 79 -80 0
-75 -79 -80 0
-7 13 81 0
7 -13 81 0
7 13 -81 0
-7 -13 -81 0
-14 20 82 0
14 -20 82 0
14 20 -82 0
-14 -20 -82 0
-72 81 83 0
72 -81 83 0
72 81 -83 0
-72 -81 -83 0
-73 22 84 0
73 -22 84 0
73 22 -84 0
-73 -22 -84 0
-32 28 85 0
32 -28 85 0
32 28 -85 0
-32 -28 -85 0
-35 8 86 0
35 -8 86 0
35 8 -86 0
-35 -8 -86 0
-84 80 87 0
84 -80 87 0
84 80 -87 0
-84 -80 -87 0
-85 76 88 0
85 -76 88 0
85 76 -88 0
-85 -76 -88 0
-86 25 89 0
86 -25 89 0
86 25 -89 0
-86 -25 -89 0
-83 87 90 0
83 -87 90 0
83 87 -90 0
-83 -87 -90 0
-23 74 91 0
23 -74 91 0
23 74 -91 0
-23 -74 -91 0
-78 9 92 0
78 -9 92 0
78 9 -92 0
-78 -9 -92 0
-12 88 93 0
12 -88 93 0
12 88 -93 0
-12 -88 -93 0
-91 77 94 0
91 -77 94 0
91 77 -94 0
-91 -77 -94 0
-1 92 95 0
1 -92 95 0
1 92 -95 0
-1 -92 -95 0
-93 24 96 0
93 -24 96 0
93 24 -96 0
-93 -24 -96 0
-82 90 97 0
82 -90 97 0
82 90 -97 0
-82 -90 -97 0
-6 95 98 0
6 -95 98 0
6 95 -98 0
-6 -95 -98 0
-94 33 99 0
94 -33 99 0
94 33 -99 0
-94 -33 -99 0
-19 99 100 0
19 -99 100 0
19 99 -100 0
-19 -99 -100 0
-97 96 101 0
97 -96 101 0
97 96 -101 0
-97 -96 -101 0
-101 18 102 0
101 -18 102 0
101 18 -102 0
-101 -18 -102 0
-102 89 103 0
102 -89 103 0
102 89 -103 0
-102 -89 -103 0
-30 103 104 0
30 -103 104 0
30 103 -104 0
-30 -103 -104 0
-104 98 105 0
104 -98 105 0
104 98 -105 0
-104 -98 -105 0
-100 105 106 0
100 -105 106 0
100 105 -106 0
-100 -105 -106 0
-71 -106 0
71 106 0
